3212 9456
5948 6749
3553 8443
9330 9154
7260 659
6919 3301
6925 1514
6002 1283
6259 1397
2204 25
9237 9155
4647 9800
6258 7527
6794 4139
7067 1567
7511 1830
3575 1166
3337 3352
435 2977
298 7798
9076 7089
4087 4538
5179 8662
8278 2862
8776 5796
3373 6168
6853 6131
2951 7409
1950 4095
7530 6242
8351 3963
4861 3315
4473 7462
8269 6566
3522 7032
2817 3747
8515 1908
5865 7035
3787 203
8306 4620
1234 2100
3808 7395
6914 3379
5223 6269
8029 8652
4170 7628
7939 3810
9430 5108
8396 8683
2943 5579
